c nIsolatedPIs 4
c maxPI 131
p cnf 750 1858
c gate 132 -38 126 0
-38 -132 0
126 -132 0
38 -126 132 0
c gate 133 -40 -126 0
-40 -133 0
-126 -133 0
40 126 133 0
c gate 134 -125 -133 0
-125 -134 0
-133 -134 0
125 133 134 0
c gate 135 -132 134 0
-132 -135 0
134 -135 0
132 -134 135 0
c gate 136 -37 126 0
-37 -136 0
126 -136 0
37 -126 136 0
c gate 137 -39 -126 0
-39 -137 0
-126 -137 0
39 126 137 0
c gate 138 125 -137 0
125 -138 0
-137 -138 0
-125 137 138 0
c gate 139 -136 138 0
-136 -139 0
138 -139 0
136 -138 139 0
c gate 140 128 -139 0
128 -140 0
-139 -140 0
-128 139 140 0
c gate 141 -135 140 0
-135 -141 0
140 -141 0
135 -140 141 0
c gate 142 -45 126 0
-45 -142 0
126 -142 0
45 -126 142 0
c gate 143 -47 -126 0
-47 -143 0
-126 -143 0
47 126 143 0
c gate 144 125 -143 0
125 -144 0
-143 -144 0
-125 143 144 0
c gate 145 -142 144 0
-142 -145 0
144 -145 0
142 -144 145 0
c gate 146 -46 126 0
-46 -146 0
126 -146 0
46 -126 146 0
c gate 147 -48 -126 0
-48 -147 0
-126 -147 0
48 126 147 0
c gate 148 -125 -147 0
-125 -148 0
-147 -148 0
125 147 148 0
c gate 149 -146 148 0
-146 -149 0
148 -149 0
146 -148 149 0
c gate 150 -145 -149 0
-145 -150 0
-149 -150 0
145 149 150 0
c gate 151 -128 150 0
-128 -151 0
150 -151 0
128 -150 151 0
c gate 152 -127 -151 0
-127 -152 0
-151 -152 0
127 151 152 0
c gate 153 -141 152 0
-141 -153 0
152 -153 0
141 -152 153 0
c gate 154 -34 126 0
-34 -154 0
126 -154 0
34 -126 154 0
c gate 155 -36 -126 0
-36 -155 0
-126 -155 0
36 126 155 0
c gate 156 -125 -155 0
-125 -156 0
-155 -156 0
125 155 156 0
c gate 157 -154 156 0
-154 -157 0
156 -157 0
154 -156 157 0
c gate 158 -33 126 0
-33 -158 0
126 -158 0
33 -126 158 0
c gate 159 -35 -126 0
-35 -159 0
-126 -159 0
35 126 159 0
c gate 160 125 -159 0
125 -160 0
-159 -160 0
-125 159 160 0
c gate 161 -158 160 0
-158 -161 0
160 -161 0
158 -160 161 0
c gate 162 128 -161 0
128 -162 0
-161 -162 0
-128 161 162 0
c gate 163 -157 162 0
-157 -163 0
162 -163 0
157 -162 163 0
c gate 164 -41 126 0
-41 -164 0
126 -164 0
41 -126 164 0
c gate 165 -43 -126 0
-43 -165 0
-126 -165 0
43 126 165 0
c gate 166 125 -165 0
125 -166 0
-165 -166 0
-125 165 166 0
c gate 167 -164 166 0
-164 -167 0
166 -167 0
164 -166 167 0
c gate 168 -42 126 0
-42 -168 0
126 -168 0
42 -126 168 0
c gate 169 -44 -126 0
-44 -169 0
-126 -169 0
44 126 169 0
c gate 170 -125 -169 0
-125 -170 0
-169 -170 0
125 169 170 0
c gate 171 -168 170 0
-168 -171 0
170 -171 0
168 -170 171 0
c gate 172 -167 -171 0
-167 -172 0
-171 -172 0
167 171 172 0
c gate 173 -128 172 0
-128 -173 0
172 -173 0
128 -172 173 0
c gate 174 127 -173 0
127 -174 0
-173 -174 0
-127 173 174 0
c gate 175 -163 174 0
-163 -175 0
174 -175 0
163 -174 175 0
c gate 176 -153 -175 0
-153 -176 0
-175 -176 0
153 175 176 0
c gate 177 130 -176 0
130 -177 0
-176 -177 0
-130 176 177 0
c gate 178 -67 -126 0
-67 -178 0
-126 -178 0
67 126 178 0
c gate 179 -65 126 0
-65 -179 0
126 -179 0
65 -126 179 0
c gate 180 -178 -179 0
-178 -180 0
-179 -180 0
178 179 180 0
c gate 181 125 180 0
125 -181 0
180 -181 0
-125 -180 181 0
c gate 182 -66 126 0
-66 -182 0
126 -182 0
66 -126 182 0
c gate 183 -68 -126 0
-68 -183 0
-126 -183 0
68 126 183 0
c gate 184 -125 -183 0
-125 -184 0
-183 -184 0
125 183 184 0
c gate 185 -182 184 0
-182 -185 0
184 -185 0
182 -184 185 0
c gate 186 128 -185 0
128 -186 0
-185 -186 0
-128 185 186 0
c gate 187 -181 186 0
-181 -187 0
186 -187 0
181 -186 187 0
c gate 188 -75 -126 0
-75 -188 0
-126 -188 0
75 126 188 0
c gate 189 -73 126 0
-73 -189 0
126 -189 0
73 -126 189 0
c gate 190 -188 -189 0
-188 -190 0
-189 -190 0
188 189 190 0
c gate 191 125 190 0
125 -191 0
190 -191 0
-125 -190 191 0
c gate 192 -74 126 0
-74 -192 0
126 -192 0
74 -126 192 0
c gate 193 -76 -126 0
-76 -193 0
-126 -193 0
76 126 193 0
c gate 194 -125 -193 0
-125 -194 0
-193 -194 0
125 193 194 0
c gate 195 -192 194 0
-192 -195 0
194 -195 0
192 -194 195 0
c gate 196 -128 -195 0
-128 -196 0
-195 -196 0
128 195 196 0
c gate 197 -191 196 0
-191 -197 0
196 -197 0
191 -196 197 0
c gate 198 -187 -197 0
-187 -198 0
-197 -198 0
187 197 198 0
c gate 199 127 -198 0
127 -199 0
-198 -199 0
-127 198 199 0
c gate 200 -79 -126 0
-79 -200 0
-126 -200 0
79 126 200 0
c gate 201 -77 126 0
-77 -201 0
126 -201 0
77 -126 201 0
c gate 202 -200 -201 0
-200 -202 0
-201 -202 0
200 201 202 0
c gate 203 125 202 0
125 -203 0
202 -203 0
-125 -202 203 0
c gate 204 -78 126 0
-78 -204 0
126 -204 0
78 -126 204 0
c gate 205 -80 -126 0
-80 -205 0
-126 -205 0
80 126 205 0
c gate 206 -125 -205 0
-125 -206 0
-205 -206 0
125 205 206 0
c gate 207 -204 206 0
-204 -207 0
206 -207 0
204 -206 207 0
c gate 208 -128 -207 0
-128 -208 0
-207 -208 0
128 207 208 0
c gate 209 -203 208 0
-203 -209 0
208 -209 0
203 -208 209 0
c gate 210 -71 -126 0
-71 -210 0
-126 -210 0
71 126 210 0
c gate 211 -69 126 0
-69 -211 0
126 -211 0
69 -126 211 0
c gate 212 -210 -211 0
-210 -212 0
-211 -212 0
210 211 212 0
c gate 213 125 212 0
125 -213 0
212 -213 0
-125 -212 213 0
c gate 214 -70 126 0
-70 -214 0
126 -214 0
70 -126 214 0
c gate 215 -72 -126 0
-72 -215 0
-126 -215 0
72 126 215 0
c gate 216 -125 -215 0
-125 -216 0
-215 -216 0
125 215 216 0
c gate 217 -214 216 0
-214 -217 0
216 -217 0
214 -216 217 0
c gate 218 128 -217 0
128 -218 0
-217 -218 0
-128 217 218 0
c gate 219 -213 218 0
-213 -219 0
218 -219 0
213 -218 219 0
c gate 220 -209 -219 0
-209 -220 0
-219 -220 0
209 219 220 0
c gate 221 -127 -220 0
-127 -221 0
-220 -221 0
127 220 221 0
c gate 222 -130 -221 0
-130 -222 0
-221 -222 0
130 221 222 0
c gate 223 -199 222 0
-199 -223 0
222 -223 0
199 -222 223 0
c gate 224 -177 -223 0
-177 -224 0
-223 -224 0
177 223 224 0
c gate 225 129 -224 0
129 -225 0
-224 -225 0
-129 224 225 0
c gate 226 -131 225 0
-131 -226 0
225 -226 0
131 -225 226 0
c gate 227 -67 126 0
-67 -227 0
126 -227 0
67 -126 227 0
c gate 228 -69 -126 0
-69 -228 0
-126 -228 0
69 126 228 0
c gate 229 125 -228 0
125 -229 0
-228 -229 0
-125 228 229 0
c gate 230 -227 229 0
-227 -230 0
229 -230 0
227 -229 230 0
c gate 231 -68 126 0
-68 -231 0
126 -231 0
68 -126 231 0
c gate 232 -70 -126 0
-70 -232 0
-126 -232 0
70 126 232 0
c gate 233 -231 -232 0
-231 -233 0
-232 -233 0
231 232 233 0
c gate 234 -125 233 0
-125 -234 0
233 -234 0
125 -233 234 0
c gate 235 128 -234 0
128 -235 0
-234 -235 0
-128 234 235 0
c gate 236 -230 235 0
-230 -236 0
235 -236 0
230 -235 236 0
c gate 237 -75 126 0
-75 -237 0
126 -237 0
75 -126 237 0
c gate 238 -77 -126 0
-77 -238 0
-126 -238 0
77 126 238 0
c gate 239 125 -238 0
125 -239 0
-238 -239 0
-125 238 239 0
c gate 240 -237 239 0
-237 -240 0
239 -240 0
237 -239 240 0
c gate 241 -76 126 0
-76 -241 0
126 -241 0
76 -126 241 0
c gate 242 -78 -126 0
-78 -242 0
-126 -242 0
78 126 242 0
c gate 243 -241 -242 0
-241 -243 0
-242 -243 0
241 242 243 0
c gate 244 -125 243 0
-125 -244 0
243 -244 0
125 -243 244 0
c gate 245 -128 -244 0
-128 -245 0
-244 -245 0
128 244 245 0
c gate 246 -240 245 0
-240 -246 0
245 -246 0
240 -245 246 0
c gate 247 127 -246 0
127 -247 0
-246 -247 0
-127 246 247 0
c gate 248 -236 247 0
-236 -248 0
247 -248 0
236 -247 248 0
c gate 249 -71 126 0
-71 -249 0
126 -249 0
71 -126 249 0
c gate 250 -73 -126 0
-73 -250 0
-126 -250 0
73 126 250 0
c gate 251 125 -250 0
125 -251 0
-250 -251 0
-125 250 251 0
c gate 252 -249 251 0
-249 -252 0
251 -252 0
249 -251 252 0
c gate 253 -72 126 0
-72 -253 0
126 -253 0
72 -126 253 0
c gate 254 -74 -126 0
-74 -254 0
-126 -254 0
74 126 254 0
c gate 255 -253 -254 0
-253 -255 0
-254 -255 0
253 254 255 0
c gate 256 -125 255 0
-125 -256 0
255 -256 0
125 -255 256 0
c gate 257 128 -256 0
128 -257 0
-256 -257 0
-128 256 257 0
c gate 258 -252 257 0
-252 -258 0
257 -258 0
252 -257 258 0
c gate 259 -80 126 0
-80 -259 0
126 -259 0
80 -126 259 0
c gate 260 -82 -126 0
-82 -260 0
-126 -260 0
82 126 260 0
c gate 261 -125 -260 0
-125 -261 0
-260 -261 0
125 260 261 0
c gate 262 -259 261 0
-259 -262 0
261 -262 0
259 -261 262 0
c gate 263 -79 126 0
-79 -263 0
126 -263 0
79 -126 263 0
c gate 264 -81 -126 0
-81 -264 0
-126 -264 0
81 126 264 0
c gate 265 125 -264 0
125 -265 0
-264 -265 0
-125 264 265 0
c gate 266 -263 265 0
-263 -266 0
265 -266 0
263 -265 266 0
c gate 267 -128 -266 0
-128 -267 0
-266 -267 0
128 266 267 0
c gate 268 -262 267 0
-262 -268 0
267 -268 0
262 -267 268 0
c gate 269 -127 -268 0
-127 -269 0
-268 -269 0
127 268 269 0
c gate 270 -258 269 0
-258 -270 0
269 -270 0
258 -269 270 0
c gate 271 -130 -270 0
-130 -271 0
-270 -271 0
130 270 271 0
c gate 272 -248 271 0
-248 -272 0
271 -272 0
248 -271 272 0
c gate 273 49 -126 0
49 -273 0
-126 -273 0
-49 126 273 0
c gate 274 47 126 0
47 -274 0
126 -274 0
-47 -126 274 0
c gate 275 125 -274 0
125 -275 0
-274 -275 0
-125 274 275 0
c gate 276 -273 275 0
-273 -276 0
275 -276 0
273 -275 276 0
c gate 277 48 126 0
48 -277 0
126 -277 0
-48 -126 277 0
c gate 278 50 -126 0
50 -278 0
-126 -278 0
-50 126 278 0
c gate 279 -125 -278 0
-125 -279 0
-278 -279 0
125 278 279 0
c gate 280 -277 279 0
-277 -280 0
279 -280 0
277 -279 280 0
c gate 281 -128 -280 0
-128 -281 0
-280 -281 0
128 280 281 0
c gate 282 -276 281 0
-276 -282 0
281 -282 0
276 -281 282 0
c gate 283 42 -126 0
42 -283 0
-126 -283 0
-42 126 283 0
c gate 284 40 126 0
40 -284 0
126 -284 0
-40 -126 284 0
c gate 285 -125 -284 0
-125 -285 0
-284 -285 0
125 284 285 0
c gate 286 -283 285 0
-283 -286 0
285 -286 0
283 -285 286 0
c gate 287 39 126 0
39 -287 0
126 -287 0
-39 -126 287 0
c gate 288 41 -126 0
41 -288 0
-126 -288 0
-41 126 288 0
c gate 289 125 -288 0
125 -289 0
-288 -289 0
-125 288 289 0
c gate 290 -287 289 0
-287 -290 0
289 -290 0
287 -289 290 0
c gate 291 128 -290 0
128 -291 0
-290 -291 0
-128 290 291 0
c gate 292 -286 291 0
-286 -292 0
291 -292 0
286 -291 292 0
c gate 293 -127 -292 0
-127 -293 0
-292 -293 0
127 292 293 0
c gate 294 -282 293 0
-282 -294 0
293 -294 0
282 -293 294 0
c gate 295 46 -126 0
46 -295 0
-126 -295 0
-46 126 295 0
c gate 296 44 126 0
44 -296 0
126 -296 0
-44 -126 296 0
c gate 297 -125 -296 0
-125 -297 0
-296 -297 0
125 296 297 0
c gate 298 -295 297 0
-295 -298 0
297 -298 0
295 -297 298 0
c gate 299 45 -126 0
45 -299 0
-126 -299 0
-45 126 299 0
c gate 300 43 126 0
43 -300 0
126 -300 0
-43 -126 300 0
c gate 301 125 -300 0
125 -301 0
-300 -301 0
-125 300 301 0
c gate 302 -299 301 0
-299 -302 0
301 -302 0
299 -301 302 0
c gate 303 -128 -302 0
-128 -303 0
-302 -303 0
128 302 303 0
c gate 304 -298 303 0
-298 -304 0
303 -304 0
298 -303 304 0
c gate 305 35 126 0
35 -305 0
126 -305 0
-35 -126 305 0
c gate 306 37 -126 0
37 -306 0
-126 -306 0
-37 126 306 0
c gate 307 125 -306 0
125 -307 0
-306 -307 0
-125 306 307 0
c gate 308 -305 307 0
-305 -308 0
307 -308 0
305 -307 308 0
c gate 309 36 126 0
36 -309 0
126 -309 0
-36 -126 309 0
c gate 310 38 -126 0
38 -310 0
-126 -310 0
-38 126 310 0
c gate 311 -125 -310 0
-125 -311 0
-310 -311 0
125 310 311 0
c gate 312 -309 311 0
-309 -312 0
311 -312 0
309 -311 312 0
c gate 313 128 -312 0
128 -313 0
-312 -313 0
-128 312 313 0
c gate 314 -308 313 0
-308 -314 0
313 -314 0
308 -313 314 0
c gate 315 127 -314 0
127 -315 0
-314 -315 0
-127 314 315 0
c gate 316 -304 315 0
-304 -316 0
315 -316 0
304 -315 316 0
c gate 317 -294 -316 0
-294 -317 0
-316 -317 0
294 316 317 0
c gate 318 130 -317 0
130 -318 0
-317 -318 0
-130 317 318 0
c gate 319 -129 -318 0
-129 -319 0
-318 -319 0
129 318 319 0
c gate 320 -272 319 0
-272 -320 0
319 -320 0
272 -319 320 0
c gate 321 131 -320 0
131 -321 0
-320 -321 0
-131 320 321 0
c gate 322 33 -126 0
33 -322 0
-126 -322 0
-33 126 322 0
c gate 323 31 126 0
31 -323 0
126 -323 0
-31 -126 323 0
c gate 324 125 -323 0
125 -324 0
-323 -324 0
-125 323 324 0
c gate 325 -322 324 0
-322 -325 0
324 -325 0
322 -324 325 0
c gate 326 32 126 0
32 -326 0
126 -326 0
-32 -126 326 0
c gate 327 34 -126 0
34 -327 0
-126 -327 0
-34 126 327 0
c gate 328 -125 -327 0
-125 -328 0
-327 -328 0
125 327 328 0
c gate 329 -326 328 0
-326 -329 0
328 -329 0
326 -328 329 0
c gate 330 -128 -329 0
-128 -330 0
-329 -330 0
128 329 330 0
c gate 331 -325 330 0
-325 -331 0
330 -331 0
325 -330 331 0
c gate 332 26 -126 0
26 -332 0
-126 -332 0
-26 126 332 0
c gate 333 24 126 0
24 -333 0
126 -333 0
-24 -126 333 0
c gate 334 -125 -333 0
-125 -334 0
-333 -334 0
125 333 334 0
c gate 335 -332 334 0
-332 -335 0
334 -335 0
332 -334 335 0
c gate 336 23 126 0
23 -336 0
126 -336 0
-23 -126 336 0
c gate 337 25 -126 0
25 -337 0
-126 -337 0
-25 126 337 0
c gate 338 125 -337 0
125 -338 0
-337 -338 0
-125 337 338 0
c gate 339 -336 338 0
-336 -339 0
338 -339 0
336 -338 339 0
c gate 340 128 -339 0
128 -340 0
-339 -340 0
-128 339 340 0
c gate 341 -335 340 0
-335 -341 0
340 -341 0
335 -340 341 0
c gate 342 -127 -341 0
-127 -342 0
-341 -342 0
127 341 342 0
c gate 343 -331 342 0
-331 -343 0
342 -343 0
331 -342 343 0
c gate 344 29 -126 0
29 -344 0
-126 -344 0
-29 126 344 0
c gate 345 27 126 0
27 -345 0
126 -345 0
-27 -126 345 0
c gate 346 125 -345 0
125 -346 0
-345 -346 0
-125 345 346 0
c gate 347 -344 346 0
-344 -347 0
346 -347 0
344 -346 347 0
c gate 348 28 126 0
28 -348 0
126 -348 0
-28 -126 348 0
c gate 349 30 -126 0
30 -349 0
-126 -349 0
-30 126 349 0
c gate 350 -125 -349 0
-125 -350 0
-349 -350 0
125 349 350 0
c gate 351 -348 350 0
-348 -351 0
350 -351 0
348 -350 351 0
c gate 352 -128 -351 0
-128 -352 0
-351 -352 0
128 351 352 0
c gate 353 -347 352 0
-347 -353 0
352 -353 0
347 -352 353 0
c gate 354 22 -126 0
22 -354 0
-126 -354 0
-22 126 354 0
c gate 355 20 126 0
20 -355 0
126 -355 0
-20 -126 355 0
c gate 356 -125 -355 0
-125 -356 0
-355 -356 0
125 355 356 0
c gate 357 -354 356 0
-354 -357 0
356 -357 0
354 -356 357 0
c gate 358 19 126 0
19 -358 0
126 -358 0
-19 -126 358 0
c gate 359 21 -126 0
21 -359 0
-126 -359 0
-21 126 359 0
c gate 360 125 -359 0
125 -360 0
-359 -360 0
-125 359 360 0
c gate 361 -358 360 0
-358 -361 0
360 -361 0
358 -360 361 0
c gate 362 128 -361 0
128 -362 0
-361 -362 0
-128 361 362 0
c gate 363 -357 362 0
-357 -363 0
362 -363 0
357 -362 363 0
c gate 364 127 -363 0
127 -364 0
-363 -364 0
-127 363 364 0
c gate 365 -353 364 0
-353 -365 0
364 -365 0
353 -364 365 0
c gate 366 -343 -365 0
-343 -366 0
-365 -366 0
343 365 366 0
c gate 367 130 -366 0
130 -367 0
-366 -367 0
-130 366 367 0
c gate 368 61 -126 0
61 -368 0
-126 -368 0
-61 126 368 0
c gate 369 59 126 0
59 -369 0
126 -369 0
-59 -126 369 0
c gate 370 125 -369 0
125 -370 0
-369 -370 0
-125 369 370 0
c gate 371 -368 370 0
-368 -371 0
370 -371 0
368 -370 371 0
c gate 372 60 126 0
60 -372 0
126 -372 0
-60 -126 372 0
c gate 373 62 -126 0
62 -373 0
-126 -373 0
-62 126 373 0
c gate 374 -125 -373 0
-125 -374 0
-373 -374 0
125 373 374 0
c gate 375 -372 374 0
-372 -375 0
374 -375 0
372 -374 375 0
c gate 376 -128 -375 0
-128 -376 0
-375 -376 0
128 375 376 0
c gate 377 -371 376 0
-371 -377 0
376 -377 0
371 -376 377 0
c gate 378 54 -126 0
54 -378 0
-126 -378 0
-54 126 378 0
c gate 379 52 126 0
52 -379 0
126 -379 0
-52 -126 379 0
c gate 380 -125 -379 0
-125 -380 0
-379 -380 0
125 379 380 0
c gate 381 -378 380 0
-378 -381 0
380 -381 0
378 -380 381 0
c gate 382 51 126 0
51 -382 0
126 -382 0
-51 -126 382 0
c gate 383 53 -126 0
53 -383 0
-126 -383 0
-53 126 383 0
c gate 384 125 -383 0
125 -384 0
-383 -384 0
-125 383 384 0
c gate 385 -382 384 0
-382 -385 0
384 -385 0
382 -384 385 0
c gate 386 128 -385 0
128 -386 0
-385 -386 0
-128 385 386 0
c gate 387 -381 386 0
-381 -387 0
386 -387 0
381 -386 387 0
c gate 388 127 -387 0
127 -388 0
-387 -388 0
-127 387 388 0
c gate 389 -377 388 0
-377 -389 0
388 -389 0
377 -388 389 0
c gate 390 -63 126 0
-63 -390 0
126 -390 0
63 -126 390 0
c gate 391 -65 -126 0
-65 -391 0
-126 -391 0
65 126 391 0
c gate 392 -390 -391 0
-390 -392 0
-391 -392 0
390 391 392 0
c gate 393 125 -392 0
125 -393 0
-392 -393 0
-125 392 393 0
c gate 394 -64 126 0
-64 -394 0
126 -394 0
64 -126 394 0
c gate 395 -66 -126 0
-66 -395 0
-126 -395 0
66 126 395 0
c gate 396 -394 -395 0
-394 -396 0
-395 -396 0
394 395 396 0
c gate 397 -125 -396 0
-125 -397 0
-396 -397 0
125 396 397 0
c gate 398 -128 -397 0
-128 -398 0
-397 -398 0
128 397 398 0
c gate 399 -393 398 0
-393 -399 0
398 -399 0
393 -398 399 0
c gate 400 -56 126 0
-56 -400 0
126 -400 0
56 -126 400 0
c gate 401 -58 -126 0
-58 -401 0
-126 -401 0
58 126 401 0
c gate 402 -125 -401 0
-125 -402 0
-401 -402 0
125 401 402 0
c gate 403 -400 402 0
-400 -403 0
402 -403 0
400 -402 403 0
c gate 404 -57 -126 0
-57 -404 0
-126 -404 0
57 126 404 0
c gate 405 -55 126 0
-55 -405 0
126 -405 0
55 -126 405 0
c gate 406 125 -405 0
125 -406 0
-405 -406 0
-125 405 406 0
c gate 407 -404 406 0
-404 -407 0
406 -407 0
404 -406 407 0
c gate 408 -403 -407 0
-403 -408 0
-407 -408 0
403 407 408 0
c gate 409 128 -408 0
128 -409 0
-408 -409 0
-128 408 409 0
c gate 410 -127 -409 0
-127 -410 0
-409 -410 0
127 409 410 0
c gate 411 -399 410 0
-399 -411 0
410 -411 0
399 -410 411 0
c gate 412 -389 -411 0
-389 -412 0
-411 -412 0
389 411 412 0
c gate 413 -130 -412 0
-130 -413 0
-412 -413 0
130 412 413 0
c gate 414 129 -413 0
129 -414 0
-413 -414 0
-129 413 414 0
c gate 415 -367 414 0
-367 -415 0
414 -415 0
367 -414 415 0
c gate 416 -321 415 0
-321 -416 0
415 -416 0
321 -415 416 0
c gate 417 128 150 0
128 -417 0
150 -417 0
-128 -150 417 0
c gate 418 -54 126 0
-54 -418 0
126 -418 0
54 -126 418 0
c gate 419 -56 -126 0
-56 -419 0
-126 -419 0
56 126 419 0
c gate 420 -125 -419 0
-125 -420 0
-419 -420 0
125 419 420 0
c gate 421 -418 420 0
-418 -421 0
420 -421 0
418 -420 421 0
c gate 422 -53 126 0
-53 -422 0
126 -422 0
53 -126 422 0
c gate 423 -55 -126 0
-55 -423 0
-126 -423 0
55 126 423 0
c gate 424 125 -423 0
125 -424 0
-423 -424 0
-125 423 424 0
c gate 425 -422 424 0
-422 -425 0
424 -425 0
422 -424 425 0
c gate 426 -128 -425 0
-128 -426 0
-425 -426 0
128 425 426 0
c gate 427 -421 426 0
-421 -427 0
426 -427 0
421 -426 427 0
c gate 428 -127 -427 0
-127 -428 0
-427 -428 0
127 427 428 0
c gate 429 -417 428 0
-417 -429 0
428 -429 0
417 -428 429 0
c gate 430 128 172 0
128 -430 0
172 -430 0
-128 -172 430 0
c gate 431 -50 126 0
-50 -431 0
126 -431 0
50 -126 431 0
c gate 432 -52 -126 0
-52 -432 0
-126 -432 0
52 126 432 0
c gate 433 -125 -432 0
-125 -433 0
-432 -433 0
125 432 433 0
c gate 434 -431 433 0
-431 -434 0
433 -434 0
431 -433 434 0
c gate 435 -49 126 0
-49 -435 0
126 -435 0
49 -126 435 0
c gate 436 -51 -126 0
-51 -436 0
-126 -436 0
51 126 436 0
c gate 437 125 -436 0
125 -437 0
-436 -437 0
-125 436 437 0
c gate 438 -435 437 0
-435 -438 0
437 -438 0
435 -437 438 0
c gate 439 -128 -438 0
-128 -439 0
-438 -439 0
128 438 439 0
c gate 440 -434 439 0
-434 -440 0
439 -440 0
434 -439 440 0
c gate 441 127 -440 0
127 -441 0
-440 -441 0
-127 440 441 0
c gate 442 -430 441 0
-430 -442 0
441 -442 0
430 -441 442 0
c gate 443 -429 -442 0
-429 -443 0
-442 -443 0
429 442 443 0
c gate 444 -130 -443 0
-130 -444 0
-443 -444 0
130 443 444 0
c gate 445 12 -126 0
12 -445 0
-126 -445 0
-12 126 445 0
c gate 446 10 126 0
10 -446 0
126 -446 0
-10 -126 446 0
c gate 447 -125 -446 0
-125 -447 0
-446 -447 0
125 446 447 0
c gate 448 -445 447 0
-445 -448 0
447 -448 0
445 -447 448 0
c gate 449 11 -126 0
11 -449 0
-126 -449 0
-11 126 449 0
c gate 450 9 126 0
9 -450 0
126 -450 0
-9 -126 450 0
c gate 451 125 -450 0
125 -451 0
-450 -451 0
-125 450 451 0
c gate 452 -449 451 0
-449 -452 0
451 -452 0
449 -451 452 0
c gate 453 -448 -452 0
-448 -453 0
-452 -453 0
448 452 453 0
c gate 454 128 -453 0
128 -454 0
-453 -454 0
-128 453 454 0
c gate 455 19 -126 0
19 -455 0
-126 -455 0
-19 126 455 0
c gate 456 17 126 0
17 -456 0
126 -456 0
-17 -126 456 0
c gate 457 125 -456 0
125 -457 0
-456 -457 0
-125 456 457 0
c gate 458 -455 457 0
-455 -458 0
457 -458 0
455 -457 458 0
c gate 459 20 -126 0
20 -459 0
-126 -459 0
-20 126 459 0
c gate 460 18 126 0
18 -460 0
126 -460 0
-18 -126 460 0
c gate 461 -125 -460 0
-125 -461 0
-460 -461 0
125 460 461 0
c gate 462 -459 461 0
-459 -462 0
461 -462 0
459 -461 462 0
c gate 463 -458 -462 0
-458 -463 0
-462 -463 0
458 462 463 0
c gate 464 -128 -463 0
-128 -464 0
-463 -464 0
128 463 464 0
c gate 465 127 -464 0
127 -465 0
-464 -465 0
-127 464 465 0
c gate 466 -454 465 0
-454 -466 0
465 -466 0
454 -465 466 0
c gate 467 16 -126 0
16 -467 0
-126 -467 0
-16 126 467 0
c gate 468 14 126 0
14 -468 0
126 -468 0
-14 -126 468 0
c gate 469 -125 -468 0
-125 -469 0
-468 -469 0
125 468 469 0
c gate 470 -467 469 0
-467 -470 0
469 -470 0
467 -469 470 0
c gate 471 15 -126 0
15 -471 0
-126 -471 0
-15 126 471 0
c gate 472 13 126 0
13 -472 0
126 -472 0
-13 -126 472 0
c gate 473 125 -472 0
125 -473 0
-472 -473 0
-125 472 473 0
c gate 474 -471 473 0
-471 -474 0
473 -474 0
471 -473 474 0
c gate 475 -470 -474 0
-470 -475 0
-474 -475 0
470 474 475 0
c gate 476 128 -475 0
128 -476 0
-475 -476 0
-128 475 476 0
c gate 477 23 -126 0
23 -477 0
-126 -477 0
-23 126 477 0
c gate 478 21 126 0
21 -478 0
126 -478 0
-21 -126 478 0
c gate 479 125 -478 0
125 -479 0
-478 -479 0
-125 478 479 0
c gate 480 -477 479 0
-477 -480 0
479 -480 0
477 -479 480 0
c gate 481 24 -126 0
24 -481 0
-126 -481 0
-24 126 481 0
c gate 482 22 126 0
22 -482 0
126 -482 0
-22 -126 482 0
c gate 483 -125 -482 0
-125 -483 0
-482 -483 0
125 482 483 0
c gate 484 -481 483 0
-481 -484 0
483 -484 0
481 -483 484 0
c gate 485 -480 -484 0
-480 -485 0
-484 -485 0
480 484 485 0
c gate 486 -128 -485 0
-128 -486 0
-485 -486 0
128 485 486 0
c gate 487 -127 -486 0
-127 -487 0
-486 -487 0
127 486 487 0
c gate 488 -476 487 0
-476 -488 0
487 -488 0
476 -487 488 0
c gate 489 -466 -488 0
-466 -489 0
-488 -489 0
466 488 489 0
c gate 490 130 -489 0
130 -490 0
-489 -490 0
-130 489 490 0
c gate 491 -444 -490 0
-444 -491 0
-490 -491 0
444 490 491 0
c gate 492 -97 -126 0
-97 -492 0
-126 -492 0
97 126 492 0
c gate 493 -95 126 0
-95 -493 0
126 -493 0
95 -126 493 0
c gate 494 -492 -493 0
-492 -494 0
-493 -494 0
492 493 494 0
c gate 495 125 494 0
125 -495 0
494 -495 0
-125 -494 495 0
c gate 496 -96 126 0
-96 -496 0
126 -496 0
96 -126 496 0
c gate 497 -98 -126 0
-98 -497 0
-126 -497 0
98 126 497 0
c gate 498 -496 -497 0
-496 -498 0
-497 -498 0
496 497 498 0
c gate 499 -125 498 0
-125 -499 0
498 -499 0
125 -498 499 0
c gate 500 -128 -499 0
-128 -500 0
-499 -500 0
128 499 500 0
c gate 501 -495 500 0
-495 -501 0
500 -501 0
495 -500 501 0
c gate 502 -89 -126 0
-89 -502 0
-126 -502 0
89 126 502 0
c gate 503 -87 126 0
-87 -503 0
126 -503 0
87 -126 503 0
c gate 504 -502 -503 0
-502 -504 0
-503 -504 0
502 503 504 0
c gate 505 125 504 0
125 -505 0
504 -505 0
-125 -504 505 0
c gate 506 -90 -126 0
-90 -506 0
-126 -506 0
90 126 506 0
c gate 507 -88 126 0
-88 -507 0
126 -507 0
88 -126 507 0
c gate 508 -125 -507 0
-125 -508 0
-507 -508 0
125 507 508 0
c gate 509 -506 508 0
-506 -509 0
508 -509 0
506 -508 509 0
c gate 510 128 -509 0
128 -510 0
-509 -510 0
-128 509 510 0
c gate 511 -505 510 0
-505 -511 0
510 -511 0
505 -510 511 0
c gate 512 -501 -511 0
-501 -512 0
-511 -512 0
501 511 512 0
c gate 513 127 -512 0
127 -513 0
-512 -513 0
-127 512 513 0
c gate 514 -93 -126 0
-93 -514 0
-126 -514 0
93 126 514 0
c gate 515 -91 126 0
-91 -515 0
126 -515 0
91 -126 515 0
c gate 516 -514 -515 0
-514 -516 0
-515 -516 0
514 515 516 0
c gate 517 125 516 0
125 -517 0
516 -517 0
-125 -516 517 0
c gate 518 -94 -126 0
-94 -518 0
-126 -518 0
94 126 518 0
c gate 519 -92 126 0
-92 -519 0
126 -519 0
92 -126 519 0
c gate 520 -125 -519 0
-125 -520 0
-519 -520 0
125 519 520 0
c gate 521 -518 520 0
-518 -521 0
520 -521 0
518 -520 521 0
c gate 522 128 -521 0
128 -522 0
-521 -522 0
-128 521 522 0
c gate 523 -517 522 0
-517 -523 0
522 -523 0
517 -522 523 0
c gate 524 -99 126 0
-99 -524 0
126 -524 0
99 -126 524 0
c gate 525 -101 -126 0
-101 -525 0
-126 -525 0
101 126 525 0
c gate 526 125 -525 0
125 -526 0
-525 -526 0
-125 525 526 0
c gate 527 -524 526 0
-524 -527 0
526 -527 0
524 -526 527 0
c gate 528 -100 126 0
-100 -528 0
126 -528 0
100 -126 528 0
c gate 529 -102 -126 0
-102 -529 0
-126 -529 0
102 126 529 0
c gate 530 -528 -529 0
-528 -530 0
-529 -530 0
528 529 530 0
c gate 531 -125 530 0
-125 -531 0
530 -531 0
125 -530 531 0
c gate 532 -128 -531 0
-128 -532 0
-531 -532 0
128 531 532 0
c gate 533 -527 532 0
-527 -533 0
532 -533 0
527 -532 533 0
c gate 534 -523 -533 0
-523 -534 0
-533 -534 0
523 533 534 0
c gate 535 -127 -534 0
-127 -535 0
-534 -535 0
127 534 535 0
c gate 536 130 -535 0
130 -536 0
-535 -536 0
-130 535 536 0
c gate 537 -513 536 0
-513 -537 0
536 -537 0
513 -536 537 0
c gate 538 -119 -126 0
-119 -538 0
-126 -538 0
119 126 538 0
c gate 539 -117 126 0
-117 -539 0
126 -539 0
117 -126 539 0
c gate 540 -538 -539 0
-538 -540 0
-539 -540 0
538 539 540 0
c gate 541 125 540 0
125 -541 0
540 -541 0
-125 -540 541 0
c gate 542 -120 -126 0
-120 -542 0
-126 -542 0
120 126 542 0
c gate 543 -118 126 0
-118 -543 0
126 -543 0
118 -126 543 0
c gate 544 -125 -543 0
-125 -544 0
-543 -544 0
125 543 544 0
c gate 545 -542 544 0
-542 -545 0
544 -545 0
542 -544 545 0
c gate 546 128 -545 0
128 -546 0
-545 -546 0
-128 545 546 0
c gate 547 -541 546 0
-541 -547 0
546 -547 0
541 -546 547 0
c gate 548 -3 -126 0
-3 -548 0
-126 -548 0
3 126 548 0
c gate 549 -1 126 0
-1 -549 0
126 -549 0
1 -126 549 0
c gate 550 -548 -549 0
-548 -550 0
-549 -550 0
548 549 550 0
c gate 551 125 550 0
125 -551 0
550 -551 0
-125 -550 551 0
c gate 552 -4 -126 0
-4 -552 0
-126 -552 0
4 126 552 0
c gate 553 -2 126 0
-2 -553 0
126 -553 0
2 -126 553 0
c gate 554 -125 -553 0
-125 -554 0
-553 -554 0
125 553 554 0
c gate 555 -552 554 0
-552 -555 0
554 -555 0
552 -554 555 0
c gate 556 -128 -555 0
-128 -556 0
-555 -556 0
128 555 556 0
c gate 557 -551 556 0
-551 -557 0
556 -557 0
551 -556 557 0
c gate 558 127 -557 0
127 -558 0
-557 -558 0
-127 557 558 0
c gate 559 -547 558 0
-547 -559 0
558 -559 0
547 -558 559 0
c gate 560 -123 -126 0
-123 -560 0
-126 -560 0
123 126 560 0
c gate 561 -121 126 0
-121 -561 0
126 -561 0
121 -126 561 0
c gate 562 -560 -561 0
-560 -562 0
-561 -562 0
560 561 562 0
c gate 563 125 562 0
125 -563 0
562 -563 0
-125 -562 563 0
c gate 564 -124 -126 0
-124 -564 0
-126 -564 0
124 126 564 0
c gate 565 -122 126 0
-122 -565 0
126 -565 0
122 -126 565 0
c gate 566 -125 -565 0
-125 -566 0
-565 -566 0
125 565 566 0
c gate 567 -564 566 0
-564 -567 0
566 -567 0
564 -566 567 0
c gate 568 128 -567 0
128 -568 0
-567 -568 0
-128 567 568 0
c gate 569 -563 568 0
-563 -569 0
568 -569 0
563 -568 569 0
c gate 570 -6 126 0
-6 -570 0
126 -570 0
6 -126 570 0
c gate 571 -8 -126 0
-8 -571 0
-126 -571 0
8 126 571 0
c gate 572 -125 -571 0
-125 -572 0
-571 -572 0
125 571 572 0
c gate 573 -570 572 0
-570 -573 0
572 -573 0
570 -572 573 0
c gate 574 -5 126 0
-5 -574 0
126 -574 0
5 -126 574 0
c gate 575 -7 -126 0
-7 -575 0
-126 -575 0
7 126 575 0
c gate 576 125 -575 0
125 -576 0
-575 -576 0
-125 575 576 0
c gate 577 -574 576 0
-574 -577 0
576 -577 0
574 -576 577 0
c gate 578 -128 -577 0
-128 -578 0
-577 -578 0
128 577 578 0
c gate 579 -573 578 0
-573 -579 0
578 -579 0
573 -578 579 0
c gate 580 -127 -579 0
-127 -580 0
-579 -580 0
127 579 580 0
c gate 581 -569 580 0
-569 -581 0
580 -581 0
569 -580 581 0
c gate 582 -559 -581 0
-559 -582 0
-581 -582 0
559 581 582 0
c gate 583 -130 -582 0
-130 -583 0
-582 -583 0
130 582 583 0
c gate 584 129 -583 0
129 -584 0
-583 -584 0
-129 583 584 0
c gate 585 -537 584 0
-537 -585 0
584 -585 0
537 -584 585 0
c gate 586 131 585 0
131 -586 0
585 -586 0
-131 -585 586 0
c gate 587 131 225 0
131 -587 0
225 -587 0
-131 -225 587 0
c gate 588 129 -491 0
129 -588 0
-491 -588 0
-129 491 588 0
c gate 589 131 588 0
131 -589 0
588 -589 0
-131 -588 589 0
c gate 590 321 415 0
321 -590 0
415 -590 0
-321 -415 590 0
c gate 591 -589 -590 0
-589 -591 0
-590 -591 0
589 590 591 0
c gate 592 -587 591 0
-587 -592 0
591 -592 0
587 -591 592 0
c gate 593 -131 588 0
-131 -593 0
588 -593 0
131 -588 593 0
c gate 594 592 -593 0
592 -594 0
-593 -594 0
-592 593 594 0
c gate 595 -88 -126 0
-88 -595 0
-126 -595 0
88 126 595 0
c gate 596 -86 126 0
-86 -596 0
126 -596 0
86 -126 596 0
c gate 597 125 -596 0
125 -597 0
-596 -597 0
-125 596 597 0
c gate 598 -595 597 0
-595 -598 0
597 -598 0
595 -597 598 0
c gate 599 -125 504 0
-125 -599 0
504 -599 0
125 -504 599 0
c gate 600 128 -599 0
128 -600 0
-599 -600 0
-128 599 600 0
c gate 601 -598 600 0
-598 -601 0
600 -601 0
598 -600 601 0
c gate 602 -96 -126 0
-96 -602 0
-126 -602 0
96 126 602 0
c gate 603 -94 126 0
-94 -603 0
126 -603 0
94 -126 603 0
c gate 604 125 -603 0
125 -604 0
-603 -604 0
-125 603 604 0
c gate 605 -602 604 0
-602 -605 0
604 -605 0
602 -604 605 0
c gate 606 -125 494 0
-125 -606 0
494 -606 0
125 -494 606 0
c gate 607 -128 -606 0
-128 -607 0
-606 -607 0
128 606 607 0
c gate 608 -605 607 0
-605 -608 0
607 -608 0
605 -607 608 0
c gate 609 -127 -608 0
-127 -609 0
-608 -609 0
127 608 609 0
c gate 610 -601 609 0
-601 -610 0
609 -610 0
601 -609 610 0
c gate 611 -92 -126 0
-92 -611 0
-126 -611 0
92 126 611 0
c gate 612 -90 126 0
-90 -612 0
126 -612 0
90 -126 612 0
c gate 613 125 -612 0
125 -613 0
-612 -613 0
-125 612 613 0
c gate 614 -611 613 0
-611 -614 0
613 -614 0
611 -613 614 0
c gate 615 -125 516 0
-125 -615 0
516 -615 0
125 -516 615 0
c gate 616 -128 -615 0
-128 -616 0
-615 -616 0
128 615 616 0
c gate 617 -614 616 0
-614 -617 0
616 -617 0
614 -616 617 0
c gate 618 -83 126 0
-83 -618 0
126 -618 0
83 -126 618 0
c gate 619 -85 -126 0
-85 -619 0
-126 -619 0
85 126 619 0
c gate 620 -125 -619 0
-125 -620 0
-619 -620 0
125 619 620 0
c gate 621 -618 620 0
-618 -621 0
620 -621 0
618 -620 621 0
c gate 622 -82 126 0
-82 -622 0
126 -622 0
82 -126 622 0
c gate 623 -84 -126 0
-84 -623 0
-126 -623 0
84 126 623 0
c gate 624 125 -623 0
125 -624 0
-623 -624 0
-125 623 624 0
c gate 625 -622 624 0
-622 -625 0
624 -625 0
622 -624 625 0
c gate 626 128 -625 0
128 -626 0
-625 -626 0
-128 625 626 0
c gate 627 -621 626 0
-621 -627 0
626 -627 0
621 -626 627 0
c gate 628 127 -627 0
127 -628 0
-627 -628 0
-127 627 628 0
c gate 629 -617 628 0
-617 -629 0
628 -629 0
617 -628 629 0
c gate 630 -610 -629 0
-610 -630 0
-629 -630 0
610 629 630 0
c gate 631 130 -630 0
130 -631 0
-630 -631 0
-130 630 631 0
c gate 632 -118 -126 0
-118 -632 0
-126 -632 0
118 126 632 0
c gate 633 -116 126 0
-116 -633 0
126 -633 0
116 -126 633 0
c gate 634 125 -633 0
125 -634 0
-633 -634 0
-125 633 634 0
c gate 635 -632 634 0
-632 -635 0
634 -635 0
632 -634 635 0
c gate 636 -125 540 0
-125 -636 0
540 -636 0
125 -540 636 0
c gate 637 128 -636 0
128 -637 0
-636 -637 0
-128 636 637 0
c gate 638 -635 637 0
-635 -638 0
637 -638 0
635 -637 638 0
c gate 639 -2 -126 0
-2 -639 0
-126 -639 0
2 126 639 0
c gate 640 -124 126 0
-124 -640 0
126 -640 0
124 -126 640 0
c gate 641 125 -640 0
125 -641 0
-640 -641 0
-125 640 641 0
c gate 642 -639 641 0
-639 -642 0
641 -642 0
639 -641 642 0
c gate 643 -125 550 0
-125 -643 0
550 -643 0
125 -550 643 0
c gate 644 -128 -643 0
-128 -644 0
-643 -644 0
128 643 644 0
c gate 645 -642 644 0
-642 -645 0
644 -645 0
642 -644 645 0
c gate 646 -127 -645 0
-127 -646 0
-645 -646 0
127 645 646 0
c gate 647 -638 646 0
-638 -647 0
646 -647 0
638 -646 647 0
c gate 648 -122 -126 0
-122 -648 0
-126 -648 0
122 126 648 0
c gate 649 -120 126 0
-120 -649 0
126 -649 0
120 -126 649 0
c gate 650 125 -649 0
125 -650 0
-649 -650 0
-125 649 650 0
c gate 651 -648 650 0
-648 -651 0
650 -651 0
648 -650 651 0
c gate 652 -125 562 0
-125 -652 0
562 -652 0
125 -562 652 0
c gate 653 -128 -652 0
-128 -653 0
-652 -653 0
128 652 653 0
c gate 654 -651 653 0
-651 -654 0
653 -654 0
651 -653 654 0
c gate 655 -113 126 0
-113 -655 0
126 -655 0
113 -126 655 0
c gate 656 -115 -126 0
-115 -656 0
-126 -656 0
115 126 656 0
c gate 657 -125 -656 0
-125 -657 0
-656 -657 0
125 656 657 0
c gate 658 -655 657 0
-655 -658 0
657 -658 0
655 -657 658 0
c gate 659 -112 126 0
-112 -659 0
126 -659 0
112 -126 659 0
c gate 660 -114 -126 0
-114 -660 0
-126 -660 0
114 126 660 0
c gate 661 125 -660 0
125 -661 0
-660 -661 0
-125 660 661 0
c gate 662 -659 661 0
-659 -662 0
661 -662 0
659 -661 662 0
c gate 663 128 -662 0
128 -663 0
-662 -663 0
-128 662 663 0
c gate 664 -658 663 0
-658 -664 0
663 -664 0
658 -663 664 0
c gate 665 127 -664 0
127 -665 0
-664 -665 0
-127 664 665 0
c gate 666 -654 665 0
-654 -666 0
665 -666 0
654 -665 666 0
c gate 667 -647 -666 0
-647 -667 0
-666 -667 0
647 666 667 0
c gate 668 -130 -667 0
-130 -668 0
-667 -668 0
130 667 668 0
c gate 669 129 -668 0
129 -669 0
-668 -669 0
-129 668 669 0
c gate 670 -631 669 0
-631 -670 0
669 -670 0
631 -669 670 0
c gate 671 131 670 0
131 -671 0
670 -671 0
-131 -670 671 0
c gate 672 125 255 0
125 -672 0
255 -672 0
-125 -255 672 0
c gate 673 -125 190 0
-125 -673 0
190 -673 0
125 -190 673 0
c gate 674 -128 -673 0
-128 -674 0
-673 -674 0
128 673 674 0
c gate 675 -672 674 0
-672 -675 0
674 -675 0
672 -674 675 0
c gate 676 125 396 0
125 -676 0
396 -676 0
-125 -396 676 0
c gate 677 -125 180 0
-125 -677 0
180 -677 0
125 -180 677 0
c gate 678 128 -677 0
128 -678 0
-677 -678 0
-128 677 678 0
c gate 679 -676 678 0
-676 -679 0
678 -679 0
676 -678 679 0
c gate 680 -675 -679 0
-675 -680 0
-679 -680 0
675 679 680 0
c gate 681 127 -680 0
127 -681 0
-680 -681 0
-127 680 681 0
c gate 682 125 233 0
125 -682 0
233 -682 0
-125 -233 682 0
c gate 683 -125 212 0
-125 -683 0
212 -683 0
125 -212 683 0
c gate 684 128 -683 0
128 -684 0
-683 -684 0
-128 683 684 0
c gate 685 -682 684 0
-682 -685 0
684 -685 0
682 -684 685 0
c gate 686 125 243 0
125 -686 0
243 -686 0
-125 -243 686 0
c gate 687 -125 202 0
-125 -687 0
202 -687 0
125 -202 687 0
c gate 688 -128 -687 0
-128 -688 0
-687 -688 0
128 687 688 0
c gate 689 -686 688 0
-686 -689 0
688 -689 0
686 -688 689 0
c gate 690 -685 -689 0
-685 -690 0
-689 -690 0
685 689 690 0
c gate 691 -127 -690 0
-127 -691 0
-690 -691 0
127 690 691 0
c gate 692 130 -691 0
130 -692 0
-691 -692 0
-130 691 692 0
c gate 693 -681 692 0
-681 -693 0
692 -693 0
681 -692 693 0
c gate 694 125 530 0
125 -694 0
530 -694 0
-125 -530 694 0
c gate 695 -103 -126 0
-103 -695 0
-126 -695 0
103 126 695 0
c gate 696 -101 126 0
-101 -696 0
126 -696 0
101 -126 696 0
c gate 697 -125 -696 0
-125 -697 0
-696 -697 0
125 696 697 0
c gate 698 -695 697 0
-695 -698 0
697 -698 0
695 -697 698 0
c gate 699 128 -698 0
128 -699 0
-698 -699 0
-128 698 699 0
c gate 700 -694 699 0
-694 -700 0
699 -700 0
694 -699 700 0
c gate 701 -109 126 0
-109 -701 0
126 -701 0
109 -126 701 0
c gate 702 -111 -126 0
-111 -702 0
-126 -702 0
111 126 702 0
c gate 703 -125 -702 0
-125 -703 0
-702 -703 0
125 702 703 0
c gate 704 -701 703 0
-701 -704 0
703 -704 0
701 -703 704 0
c gate 705 -108 126 0
-108 -705 0
126 -705 0
108 -126 705 0
c gate 706 -110 -126 0
-110 -706 0
-126 -706 0
110 126 706 0
c gate 707 125 -706 0
125 -707 0
-706 -707 0
-125 706 707 0
c gate 708 -705 707 0
-705 -708 0
707 -708 0
705 -707 708 0
c gate 709 -128 -708 0
-128 -709 0
-708 -709 0
128 708 709 0
c gate 710 -704 709 0
-704 -710 0
709 -710 0
704 -709 710 0
c gate 711 -127 -710 0
-127 -711 0
-710 -711 0
127 710 711 0
c gate 712 -700 711 0
-700 -712 0
711 -712 0
700 -711 712 0
c gate 713 125 498 0
125 -713 0
498 -713 0
-125 -498 713 0
c gate 714 -99 -126 0
-99 -714 0
-126 -714 0
99 126 714 0
c gate 715 -97 126 0
-97 -715 0
126 -715 0
97 -126 715 0
c gate 716 -125 -715 0
-125 -716 0
-715 -716 0
125 715 716 0
c gate 717 -714 716 0
-714 -717 0
716 -717 0
714 -716 717 0
c gate 718 128 -717 0
128 -718 0
-717 -718 0
-128 717 718 0
c gate 719 -713 718 0
-713 -719 0
718 -719 0
713 -718 719 0
c gate 720 -105 126 0
-105 -720 0
126 -720 0
105 -126 720 0
c gate 721 -107 -126 0
-107 -721 0
-126 -721 0
107 126 721 0
c gate 722 -125 -721 0
-125 -722 0
-721 -722 0
125 721 722 0
c gate 723 -720 722 0
-720 -723 0
722 -723 0
720 -722 723 0
c gate 724 -104 126 0
-104 -724 0
126 -724 0
104 -126 724 0
c gate 725 -106 -126 0
-106 -725 0
-126 -725 0
106 126 725 0
c gate 726 125 -725 0
125 -726 0
-725 -726 0
-125 725 726 0
c gate 727 -724 726 0
-724 -727 0
726 -727 0
724 -726 727 0
c gate 728 -128 -727 0
-128 -728 0
-727 -728 0
128 727 728 0
c gate 729 -723 728 0
-723 -729 0
728 -729 0
723 -728 729 0
c gate 730 127 -729 0
127 -730 0
-729 -730 0
-127 729 730 0
c gate 731 -719 730 0
-719 -731 0
730 -731 0
719 -730 731 0
c gate 732 -712 -731 0
-712 -732 0
-731 -732 0
712 731 732 0
c gate 733 -130 -732 0
-130 -733 0
-732 -733 0
130 732 733 0
c gate 734 129 -733 0
129 -734 0
-733 -734 0
-129 733 734 0
c gate 735 -693 734 0
-693 -735 0
734 -735 0
693 -734 735 0
c gate 736 131 735 0
131 -736 0
735 -736 0
-131 -735 736 0
c gate 737 -671 -736 0
-671 -737 0
-736 -737 0
671 736 737 0
c gate 738 -594 737 0
-594 -738 0
737 -738 0
594 -737 738 0
c gate 739 -586 738 0
-586 -739 0
738 -739 0
586 -738 739 0
c gate 740 -226 -416 0
-226 -740 0
-416 -740 0
226 416 740 0
c gate 741 -739 740 0
-739 -741 0
740 -741 0
739 -740 741 0
c gate 742 -131 670 0
-131 -742 0
670 -742 0
131 -670 742 0
c gate 743 -131 735 0
-131 -743 0
735 -743 0
131 -735 743 0
c gate 744 -131 585 0
-131 -744 0
585 -744 0
131 -585 744 0
c gate 745 -743 -744 0
-743 -745 0
-744 -745 0
743 744 745 0
c gate 746 -742 745 0
-742 -746 0
745 -746 0
742 -745 746 0
c gate 747 -741 -746 0
-741 -747 0
-746 -747 0
741 746 747 0
c gate 748 491 747 0
491 -748 0
747 -748 0
-491 -747 748 0
c gate 749 -416 748 0
-416 -749 0
748 -749 0
416 -748 749 0
c gate 750 226 -749 0
226 -750 0
-749 -750 0
-226 749 750 0
c PO
750 0
